\ Model Rmain
\ LP format - for model browsing. Use MPS format to capture full model detail.
Minimize
  x[0] + x[1] + x[2] + x[3] + x[4] + x[5] + x[6] + x[7] + x[8] + x[9]
   + x[10] + x[11]
Subject To
 row0: 0.9095744680851063 x[0] - 0.1212765957446808 x[1] <= 18
 row1: 0.9095744680851063 x[2] - 0.1212765957446808 x[3] <= 12
 row2: 0.9095744680851063 x[4] - 0.1212765957446808 x[5] <= 19
 row3: 0.9095744680851063 x[6] - 0.1212765957446808 x[7] <= 15
 row4: 0.9095744680851063 x[8] - 0.1212765957446808 x[9] <= 25
 row5: 0.9095744680851063 x[10] - 0.1212765957446808 x[11] <= 6
 equal0: = -0
 equal1: 0.2322317790855591 x[2] - 0.0309642372114079 x[3]
   = 3.063829787234043
 equal2: = -0
 equal3: 0.3289950203712086 x[6] - 0.0438660027161611 x[7]
   = 5.425531914893616
 equal4: = -0
 equal5: = -0
Bounds
 x[0] >= 1
 x[1] >= 16
 x[2] >= 14
 x[3] >= 11
 x[4] >= -7
 x[5] >= 7
 x[6] >= 15
 x[7] >= -5
 x[8] >= -5
 x[9] >= -14
 x[10] >= 4
 x[11] >= 2
End
